0 1 0 1 0 1 1 1 1 
0 47 52 31 46 37 50 16 20 
47 0 24 33 32 49 29 32 16 
52 24 0 20 31 28 43 17 26 
31 33 20 0 38 52 21 41 18 
46 32 31 38 0 29 39 23 13 
37 49 28 52 29 0 12 53 22 
50 29 43 21 39 12 0 21 28 
16 32 17 41 23 53 21 0 41 
20 16 26 18 13 22 28 41 0 
8 3
1B 4P 7P 6P 5B 9P 2P 3B 8P = 179